NAME : P-n101-k4.621745.tour
COMMENT : Length = 621745
COMMENT : Found by LKH [Keld Helsgaun] Sun Dec 17 22:39:18 2017
TYPE : TOUR
DIMENSION : 104
TOUR_SECTION
1
90
7
95
97
100
94
60
93
99
38
101
92
86
62
17
87
45
15
39
103
28
53
19
84
61
6
85
18
46
9
47
49
83
8
89
63
11
33
91
64
12
20
48
37
50
65
102
54
41
59
14
96
98
88
43
44
16
58
3
74
22
73
75
23
42
76
57
24
68
40
26
56
5
55
25
30
104
29
27
13
81
69
4
78
77
51
2
70
32
71
31
21
52
10
82
34
80
79
35
36
72
67
66
-1
EOF
